
Gurobi 12.0.2 (win64) logging started Tue Jan  6 16:10:35 2026

Set parameter LogFile to value "C:\Ioana\_uni\honours\slp\algorithm\Main_files\results\arachidonic_acid_metabolism\Task_005_Sample001_irr_gurobi.log"
Gurobi Optimizer version 12.0.2 build v12.0.2rc0 (win64 - Windows 11.0 (26100.2))

CPU model: Intel(R) Core(TM) Ultra 5 125H, instruction set [SSE2|AVX|AVX2]
Thread count: 14 physical cores, 18 logical processors, using up to 18 threads

Non-default parameters:
TimeLimit  2200

Optimize a model with 47236 rows, 34505 columns and 146715 nonzeros
Model fingerprint: 0x4f1a283e
Variable types: 17256 continuous, 17249 integer (17249 binary)
Coefficient statistics:
  Matrix range     [1e-04, 8e+04]
  Objective range  [1e-04, 9e-01]
  Bounds range     [1e+00, 1e+03]
  RHS range        [1e+00, 1e+00]
Presolve removed 30835 rows and 21552 columns
Presolve time: 0.34s
Presolved: 16401 rows, 12953 columns, 54576 nonzeros
Variable types: 6410 continuous, 6543 integer (6543 binary)
Found heuristic solution: objective 7.3762064

Root relaxation: objective 4.264139e-05, 40 iterations, 0.01 seconds (0.01 work units)

    Nodes    |    Current Node    |     Objective Bounds      |     Work
 Expl Unexpl |  Obj  Depth IntInf | Incumbent    BestBd   Gap | It/Node Time

     0     0    0.00004    0    3    7.37621    0.00004   100%     -    0s
H    0     0                       0.0426414    0.00004   100%     -    0s
     0     0    0.03546    0    5    0.04264    0.03546  16.8%     -    0s

Cutting planes:
  Cover: 2
  Flow cover: 4
  Flow path: 1
  Relax-and-lift: 1

Explored 1 nodes (1198 simplex iterations) in 0.67 seconds (0.68 work units)
Thread count was 18 (of 18 available processors)

Solution count 2: 0.0426414 7.37621 

Optimal solution found (tolerance 1.00e-04)
Best objective 4.264138602275e-02, best bound 4.264138602275e-02, gap 0.0000%
